RT is False
Default write of storage_offers_DA.csv just to have a file (but constraint should be inactive)
Reading model...
...model read.
creating competitive generators file...
...competitive generators recorded.
Loading data...
.. day-ahead data with real-time VRE data read.
Compiling instance...
...instance created.
Creating Offer Mitigation (model will solve as dispatch if TRUE)...
NOTE: storage offers will not be mitigated
...storage offer mitigation file created
Converting model to MPEC...
...converted
NOTE: initial MIP solve with only storage competitive to get feasible solution
Solving...

Welcome to IBM(R) ILOG(R) CPLEX(R) Interactive Optimizer 12.9.0.0
  with Simplex, Mixed Integer & Barrier Optimizers
5725-A06 5725-A29 5724-Y48 5724-Y49 5724-Y54 5724-Y55 5655-Y21
Copyright IBM Corp. 1988, 2019.  All Rights Reserved.

Type 'help' for a list of available commands.
Type 'help' followed by a command name for more
information on commands.

CPLEX> Logfile 'cplex.log' closed.
Logfile 'C:\Users\llavin\Desktop\test919\logs\tmp0nojyjgq.cplex.log' open.
CPLEX> New value for parallel optimization mode: -1
CPLEX> New value for mixed integer optimality gap tolerance: 0.01
CPLEX> New value for integrality tolerance: 1e-09
CPLEX> New value for feasibility tolerance: 0.01
CPLEX> New value for deterministic time limit in ticks: 100000
CPLEX> Problem 'C:\Users\llavin\Desktop\test919\logs\tmpm_xua9on.pyomo.lp' read.
Read time = 0.25 sec. (13.86 ticks)
CPLEX> Problem name         : C:\Users\llavin\Desktop\test919\logs\tmpm_xua9on.pyomo.lp
Objective sense      : Maximize
Variables            :   53321  [Nneg: 1,  Box: 21806,  Free: 4416,
                                 Binary: 27098]
Objective nonzeros   :    8980
Linear constraints   :  122164  [Less: 40983,  Greater: 58612,  Equal: 22569]
  Nonzeros           :  288505
  RHS nonzeros       :   66982

Variables            : Min LB: -5000.000        Max UB: 1000000.       
Objective nonzeros   : Min   : 0.008333333      Max   : 834.2500       
Linear constraints   :
  Nonzeros           : Min   : 0.008333333      Max   : 1000000.       
  RHS nonzeros       : Min   : 0.008333333      Max   : 1000000.       
CPLEX> CPXPARAM_Parallel                                -1
CPXPARAM_Simplex_Tolerances_Feasibility          0.01
CPXPARAM_DetTimeLimit                            100000
CPXPARAM_MIP_Tolerances_MIPGap                   0.01
CPXPARAM_MIP_Tolerances_Integrality              1.0000000000000001e-09
Tried aggregator 3 times.
MIP Presolve eliminated 88092 rows and 18948 columns.
MIP Presolve added 3374 rows and 0 columns.
MIP Presolve modified 24545 coefficients.
Aggregator did 12858 substitutions.
Reduced MIP has 24588 rows, 20959 columns, and 68865 nonzeros.
Reduced MIP has 8288 binaries, 0 generals, 0 SOSs, and 0 indicators.
Presolve time = 0.28 sec. (171.46 ticks)
Probing fixed 408 vars, tightened 2907 bounds.
Probing time = 1.23 sec. (900.69 ticks)
Tried aggregator 2 times.
MIP Presolve eliminated 910 rows and 816 columns.
MIP Presolve modified 2190 coefficients.
Aggregator did 59 substitutions.
Reduced MIP has 23619 rows, 20084 columns, and 66052 nonzeros.
Reduced MIP has 7880 binaries, 0 generals, 0 SOSs, and 0 indicators.
Presolve time = 0.11 sec. (66.00 ticks)
Probing time = 0.05 sec. (15.78 ticks)
Clique table members: 6268.
MIP emphasis: balance optimality and feasibility.
MIP search method: dynamic search.
Parallel mode: opportunistic, using up to 32 threads.
Root relaxation solution time = 0.36 sec. (462.48 ticks)

        Nodes                                         Cuts/
   Node  Left     Objective  IInf  Best Integer    Best Bound    ItCnt     Gap

      0     0     1057.2037   635                   1057.2037     5528         
      0     0     1056.9606     1                 Flowcuts: 1     5530         
      0     0     1056.5845     2                     Cuts: 4     5534         
*     0+    0                          170.4961     1056.5845           519.71%
*     0+    0                         1055.8323     1056.5845             0.07%

Flow cuts applied:  2
Gomory fractional cuts applied:  1

Root node processing (before b&c):
  Real time             =    4.02 sec. (2800.35 ticks)
Parallel b&c, 32 threads:
  Real time             =    0.00 sec. (0.00 ticks)
  Sync time (average)   =    0.00 sec.
  Wait time (average)   =    0.00 sec.
                          ------------
Total (root+branch&cut) =    4.02 sec. (2800.35 ticks)

Solution pool: 2 solutions saved.

MIP - Integer optimal, tolerance (0.01/1e-06):  Objective =  1.0558323055e+03
Current MIP best bound =  1.0565845076e+03 (gap = 0.752202, 0.07%)
Solution time =    4.05 sec.  Iterations = 5534  Nodes = 0 (1)
Deterministic time = 2800.51 ticks  (692.00 ticks/sec)

CPLEX> Incumbent solution written to file 'C:\Users\llavin\Desktop\test919\logs\tmpj7ve5hr9.cplex.sol'.
CPLEX> NOTE: no warmstart specified for MIP iteration, default behavior is true
NOTE: resolving with all competitive generators using storage-only solution to warmstart
Solving...

Welcome to IBM(R) ILOG(R) CPLEX(R) Interactive Optimizer 12.9.0.0
  with Simplex, Mixed Integer & Barrier Optimizers
5725-A06 5725-A29 5724-Y48 5724-Y49 5724-Y54 5724-Y55 5655-Y21
Copyright IBM Corp. 1988, 2019.  All Rights Reserved.

Type 'help' for a list of available commands.
Type 'help' followed by a command name for more
information on commands.

CPLEX> Logfile 'cplex.log' closed.
Logfile 'C:\Users\llavin\Desktop\test919\logs\tmpsngtxu_y.cplex.log' open.
CPLEX> New value for parallel optimization mode: -1
CPLEX> New value for mixed integer optimality gap tolerance: 0.01
CPLEX> New value for integrality tolerance: 1e-09
CPLEX> New value for feasibility tolerance: 0.01
CPLEX> New value for deterministic time limit in ticks: 100000
CPLEX> Problem 'C:\Users\llavin\Desktop\test919\logs\tmp3tu7nfm6.pyomo.lp' read.
Read time = 0.22 sec. (13.88 ticks)
CPLEX> MIP start file 'C:\Users\llavin\Desktop\test919\logs\tmpa25npu0l.cplex.mst' read.
CPLEX> Problem name         : C:\Users\llavin\Desktop\test919\logs\tmp3tu7nfm6.pyomo.lp
Objective sense      : Maximize
Variables            :   54041  [Nneg: 1,  Box: 22526,  Free: 4416,
                                 Binary: 27098]
Objective nonzeros   :    9676
Linear constraints   :  122164  [Less: 40983,  Greater: 58612,  Equal: 22569]
  Nonzeros           :  288505
  RHS nonzeros       :   66982

Variables            : Min LB: -5000.000        Max UB: 1000000.       
Objective nonzeros   : Min   : 0.008333333      Max   : 786.9417       
Linear constraints   :
  Nonzeros           : Min   : 0.008333333      Max   : 1000000.       
  RHS nonzeros       : Min   : 0.008333333      Max   : 1000000.       
CPLEX> CPXPARAM_Parallel                                -1
CPXPARAM_Simplex_Tolerances_Feasibility          0.01
CPXPARAM_DetTimeLimit                            100000
CPXPARAM_MIP_Tolerances_MIPGap                   0.01
CPXPARAM_MIP_Tolerances_Integrality              1.0000000000000001e-09
Warning:  No solution found from 1 MIP starts.
Retaining values of one MIP start for possible repair.
Tried aggregator 3 times.
MIP Presolve eliminated 88092 rows and 19668 columns.
MIP Presolve added 3374 rows and 0 columns.
MIP Presolve modified 24545 coefficients.
Aggregator did 12858 substitutions.
Reduced MIP has 24588 rows, 20959 columns, and 68865 nonzeros.
Reduced MIP has 8288 binaries, 0 generals, 0 SOSs, and 0 indicators.
Presolve time = 0.28 sec. (171.82 ticks)
Probing fixed 408 vars, tightened 2907 bounds.
Probing time = 1.23 sec. (900.69 ticks)
Tried aggregator 2 times.
MIP Presolve eliminated 910 rows and 816 columns.
MIP Presolve modified 2190 coefficients.
Aggregator did 59 substitutions.
Reduced MIP has 23619 rows, 20084 columns, and 66052 nonzeros.
Reduced MIP has 7880 binaries, 0 generals, 0 SOSs, and 0 indicators.
Presolve time = 0.09 sec. (66.00 ticks)
Probing time = 0.03 sec. (15.78 ticks)
Clique table members: 6268.
MIP emphasis: balance optimality and feasibility.
MIP search method: dynamic search.
Parallel mode: opportunistic, using up to 32 threads.
Root relaxation solution time = 0.28 sec. (229.91 ticks)

        Nodes                                         Cuts/
   Node  Left     Objective  IInf  Best Integer    Best Bound    ItCnt     Gap

      0     0   111739.1504  1674                 111739.1504     5593         
      0     0   108879.9314   600                   Cuts: 548     5848         
      0     0   107763.4521   543                   Cuts: 162     5948         
      0     0   107689.0955   512                   Cuts: 115     6010         
      0     0   107644.2695   502                    Cuts: 71     6039         
      0     0   107644.2695   472                    Cuts: 58     6062         
      0     0   107644.2695   463                    Cuts: 43     6073         
      0     0   107644.2695   454                    Cuts: 49     6082         
      0     0   107644.2695   448                    Cuts: 30     6088         
      0     0   107644.2695   447                    Cuts: 28     6089         
Repair heuristic found nothing.
      0     2   107644.2695   447                     Cuts: 7     6089         
Elapsed time = 10.55 sec. (6213.95 ticks, tree = 0.02 MB, solutions = 0)
    271    53    95536.8489   422                 103135.3876     8023         
    857   446    50762.8877   392                 102975.7074    22780         
   1493   655    infeasible                       102975.7074    29892         
   2196   604   -21446.0916   315                 102975.7074    26926         
   2898   849     8065.3981   328                 102975.7074    41680         
   3603  1460     2302.5430   300                 102975.7074    64866         
   4390  1414    21683.8321   283                 102975.7074    64380         
   5361  3820     4793.5020   249                 102975.7074    78867         
   6707  2670   -23485.9245   272                 102975.7074    76750         
*  8700+ 6695                       -30290.0796   102707.8374           439.08%
Elapsed time = 25.16 sec. (8731.67 ticks, tree = 52.10 MB, solutions = 1)
* 12007  7111      integral     0    20694.6657   102583.8570    80817  395.70%
  12198  1374        cutoff          20694.6657    54039.4697    90669  161.13%
  12396     2    47460.7802   128    20694.6657    23423.0897    90461   13.18%
  12445    11    23423.0897    77    20694.6657    23423.0897    94417   13.18%

Clique cuts applied:  1
Cover cuts applied:  11
Implied bound cuts applied:  16
Flow cuts applied:  240
Mixed integer rounding cuts applied:  43
Gomory fractional cuts applied:  61

Root node processing (before b&c):
  Real time             =    8.70 sec. (6174.29 ticks)
Parallel b&c, 32 threads:
  Real time             =   31.77 sec. (10547.13 ticks)
  Sync time (average)   =    3.63 sec.
  Wait time (average)   =    0.24 sec.
                          ------------
Total (root+branch&cut) =   40.47 sec. (16721.42 ticks)

Solution pool: 3 solutions saved.

MIP - Integer optimal, tolerance (0.01/1e-06):  Objective =  2.0694665731e+04
Current MIP best bound =  2.0838860122e+04 (gap = 144.194, 0.70%)
Solution time =   40.48 sec.  Iterations = 95206  Nodes = 12449 (2)
Deterministic time = 16721.57 ticks  (413.04 ticks/sec)

CPLEX> Incumbent solution written to file 'C:\Users\llavin\Desktop\test919\logs\tmpq0hjq2sl.cplex.sol'.
CPLEX> Exporting results... 
